StudentsNr = 10;
InstructorsNr = 57;
DaysNr = 2;
SlotsPerDay = 15;
AvailabilitySlotsLenght = 15;
RoomNr = 1;
ProgrammNr = 1;
DegreeNr = 2;
RolesNr = 4;
CoursesNr = 7;
InstructorsProgramm = [{1}, {1}, {1}, {1}, {1}, {1}, {1}, {1}, {1}, {1}, {1}, {1}, {1}, {1}, {1}, {1}, {1}, {1}, {1}, {1}, {1}, {1}, {1}, {1}, {1}, {1}, {1}, {1}, {1}, {1}, {1}, {1}, {1}, {1}, {1}, {1}, {1}, {1}, {1}, {1}, {1}, {1}, {1}, {1}, {1}, {1}, {1}, {1}, {1}, {1}, {1}, {1}, {1}, {1}, {1}, {1}, {1}];
InstructorRolesPerProgramm = [|{7, 12, 17, 22, 29, 32, 35, 38, 50, 53}, {2, 7, 8, 10, 13, 16, 19, 22, 23, 27, 28, 32, 33, 34, 35, 37, 40, 47, 48, 50, 55, 57}, {1, 3, 4, 5, 7, 8, 10, 11, 12, 13, 18, 23, 26, 27, 29, 33, 37, 38, 39, 40, 41, 42, 44, 46, 47, 53, 55, 57}, {5, 7, 8, 9, 10, 11, 12, 15, 16, 18, 20, 21, 27, 29, 30, 31, 36, 37, 38, 39, 48, 56}|];
InstructorsAvailability = [|1, 1, |1, 1, |1, 1, |0, 1, |1, 1, |0, 1, |1, 1, |0, 1, |0, 0, |1, 1, |1, 1, |1, 1, |1, 1, |0, 0, |0, 0, |0, 0, |0, 1, |1, 1, |1, 1, |1, 1, |0, 0, |1, 1, |1, 1, |0, 0, |1, 1, |1, 1, |0, 1, |1, 1, |0, 0, |1, 1, |0, 1, |1, 1, |0, 0, |0, 0, |0, 1, |1, 1, |1, 1, |1, 1, |1, 1, |1, 1, |1, 1, |1, 1, |1, 1, |1, 1, |1, 1, |1, 1, |1, 1, |0, 0, |1, 1, |1, 1, |1, 1, |1, 1, |0, 0, |0, 0, |0, 0, |1, 1, |0, 1|];
StudentsProgramm = [1, 1, 1, 1, 1, 1, 1, 1, 1, 1];
StudentsDegree = [1, 1, 1, 1, 2, 1, 2, 1, 2, 1];
StudentsSupervisorId = [22, 7, 9, 4, 31, 47, 47, 36, 6, 56];
StudentsCourseIds = [{2, 3, 4, 6}, {1, 3, 5, 6}, {1, 5, 6, 7}, {2, 3, 5, 6}, {2, 3, 4, 5}, {2, 3, 4, 7}, {2, 5, 6, 7}, {1, 2, 5, 6}, {1, 3, 6, 7}, {1, 2, 3, 7}];
StudentsAvailability = [|0, 1, |0, 0, |0, 0, |1, 1, |1, 1, |1, 1, |0, 1, |1, 1, |0, 1, |1, 1|];
TheoryticalMinCard = [0, 0, 0, 0, 0, 0, 0, 0, 1, 0];
CoursesInstructorIds = [{12, 27, 32, 43, 55}, {1, 2, 3, 4, 6, 10, 11, 12, 14, 15, 16, 17, 20, 21, 22, 23, 24, 25, 27, 29, 34, 36, 38, 41, 42, 44, 45, 46, 47, 48, 49, 50, 52, 54, 55, 56, 57}, {1, 8, 13, 14, 17, 18, 19, 21, 25, 27, 28, 29, 32, 33, 35, 36, 37, 40, 44, 48, 49, 56}, {1, 2, 6, 8, 9, 10, 17, 19, 27, 33, 38, 40, 42, 43, 46, 50, 53}, {6, 9, 12, 13, 14, 18, 21, 24, 37, 38, 39, 42, 44, 45, 46, 48, 50, 54, 57}, {3, 7, 9, 10, 11, 18, 19, 21, 23, 24, 27, 31, 36, 40, 41, 42, 45, 48, 49, 51, 53, 55}, {3, 4, 11, 12, 18, 19, 22, 23, 24, 25, 29, 32, 37, 40, 41, 43, 45, 47, 51, 54, 55, 56}];
RolesDemands = [1, 19, 22, 9];
RolesContinuity = [];
ExamLen = [1, 1, 1, 1, 2, 1, 2, 1, 2, 1];
LunchTsMinLen = 0;
LunchStarts = [7..8, 19..23];
SupervisorAvailable = 5;
OptimalLunchLenght = [1, 0];
OptimalStartTs = [1, 0];
OptimalFinishTs = [0, 15];
MinimizeRooms = 400;
RolesSoftContinuity = [|1, 2, 3, 4|3, 3, 3, 2|];
SameDegreeInRoom = 0;
Mergeability = 1;
